Cs32 Pb32 I96                           
   1.0000000000000000     
    17.6529286003540875   -0.0000000000000000    0.0000000000000000
     0.0000000000000000   17.0374580929781878    0.0000000000000000
     0.0000000000000000    0.0000000000000000   24.8180813334208281
   Cs   Pb   I 
    32    32    96
Direct
  0.4667814737418823  0.5070433956706637  0.1250000000000000
  0.4667814737418823  0.5070433956706637  0.6250000000000000
  0.4667814737418823  0.0070433956706566  0.1250000000000000
  0.4667814737418823  0.0070433956706566  0.6250000000000000
  0.9667814737418965  0.5070433956706637  0.1250000000000000
  0.9667814737418965  0.5070433956706637  0.6250000000000000
  0.9667814737418965  0.0070433956706566  0.1250000000000000
  0.9667814737418965  0.0070433956706566  0.6250000000000000
  0.2167814887418800  0.2429566043293363  0.1250000000000000
  0.2167814887418800  0.2429566043293363  0.6250000000000000
  0.2167814887418800  0.7429566043293363  0.1250000000000000
  0.2167814887418800  0.7429566043293363  0.6250000000000000
  0.7167814737418965  0.2429566043293363  0.1250000000000000
  0.7167814737418965  0.2429566043293363  0.6250000000000000
  0.7167814737418965  0.7429566043293363  0.1250000000000000
  0.7167814737418965  0.7429566043293363  0.6250000000000000
  0.0332185112581200  0.9929566053293328  0.3750000000000000
  0.0332185112581200  0.9929566053293328  0.8750000000000000
  0.0332185112581200  0.4929566043293363  0.3750000000000000
  0.0332185112581200  0.4929566043293363  0.8750000000000000
  0.5332185262581035  0.9929566053293328  0.3750000000000000
  0.5332185262581035  0.9929566053293328  0.8750000000000000
  0.5332185262581035  0.4929566043293363  0.3750000000000000
  0.5332185262581035  0.4929566043293363  0.8750000000000000
  0.2832185262581177  0.2570433956706708  0.3750000000000000
  0.2832185262581177  0.2570433956706708  0.8750000000000000
  0.2832185262581177  0.7570433956706637  0.3750000000000000
  0.2832185262581177  0.7570433956706637  0.8750000000000000
  0.7832185262581035  0.2570433956706708  0.3750000000000000
  0.7832185262581035  0.2570433956706708  0.8750000000000000
  0.7832185262581035  0.7570433956706637  0.3750000000000000
  0.7832185262581035  0.7570433956706637  0.8750000000000000
  0.2500000000000000  0.0000000000000000  0.0000000000000000
  0.2500000000000000  0.0000000000000000  0.5000000000000000
  0.2500000000000000  0.5000000000000000  0.0000000000000000
  0.2500000000000000  0.5000000000000000  0.5000000000000000
  0.7500000000000000  0.0000000000000000  0.0000000000000000
  0.7500000000000000  0.0000000000000000  0.5000000000000000
  0.7500000000000000  0.5000000000000000  0.0000000000000000
  0.7500000000000000  0.5000000000000000  0.5000000000000000
  0.0000000000000000  0.2500000000000000  0.2500000000000000
  0.0000000000000000  0.2500000000000000  0.7500000000000000
  0.0000000000000000  0.7500000000000000  0.2500000000000000
  0.0000000000000000  0.7500000000000000  0.7500000000000000
  0.5000000000000000  0.2500000000000000  0.2500000000000000
  0.5000000000000000  0.2500000000000000  0.7500000000000000
  0.5000000000000000  0.7500000000000000  0.2500000000000000
  0.5000000000000000  0.7500000000000000  0.7500000000000000
  0.2500000000000000  0.0000000000000000  0.2500000000000000
  0.2500000000000000  0.0000000000000000  0.7500000000000000
  0.2500000000000000  0.5000000000000000  0.2500000000000000
  0.2500000000000000  0.5000000000000000  0.7500000000000000
  0.7500000000000000  0.0000000000000000  0.2500000000000000
  0.7500000000000000  0.0000000000000000  0.7500000000000000
  0.7500000000000000  0.5000000000000000  0.2500000000000000
  0.7500000000000000  0.5000000000000000  0.7500000000000000
  0.0000000000000000  0.2500000000000000  0.0000000000000000
  0.0000000000000000  0.2500000000000000  0.5000000000000000
  0.0000000000000000  0.7500000000000000  0.0000000000000000
  0.0000000000000000  0.7500000000000000  0.5000000000000000
  0.5000000000000000  0.2500000000000000  0.0000000000000000
  0.5000000000000000  0.2500000000000000  0.5000000000000000
  0.5000000000000000  0.7500000000000000  0.0000000000000000
  0.5000000000000000  0.7500000000000000  0.5000000000000000
  0.2536264915349946  0.4643273940169692  0.1250000000000000
  0.2536264915349946  0.4643273940169692  0.6250000000000000
  0.2536264915349946  0.9643274240169788  0.1250000000000000
  0.2536264915349946  0.9643274240169788  0.6250000000000000
  0.7536264915349946  0.4643273940169692  0.1250000000000000
  0.7536264915349946  0.4643273940169692  0.6250000000000000
  0.7536264915349946  0.9643274240169788  0.1250000000000000
  0.7536264915349946  0.9643274240169788  0.6250000000000000
  0.0036264995349953  0.2856726059830308  0.1250000000000000
  0.0036264995349953  0.2856726059830308  0.6250000000000000
  0.0036264995349953  0.7856725759830212  0.1250000000000000
  0.0036264995349953  0.7856725759830212  0.6250000000000000
  0.5036264915349946  0.2856726059830308  0.1250000000000000
  0.5036264915349946  0.2856726059830308  0.6250000000000000
  0.5036264915349946  0.7856725759830212  0.1250000000000000
  0.5036264915349946  0.7856725759830212  0.6250000000000000
  0.2463734934650006  0.0356726039830235  0.3750000000000000
  0.2463734934650006  0.0356726039830235  0.8750000000000000
  0.2463734934650006  0.5356725759830212  0.3750000000000000
  0.2463734934650006  0.5356725759830212  0.8750000000000000
  0.7463735084650054  0.0356726039830235  0.3750000000000000
  0.7463735084650054  0.0356726039830235  0.8750000000000000
  0.7463735084650054  0.5356725759830212  0.3750000000000000
  0.7463735084650054  0.5356725759830212  0.8750000000000000
  0.4963735084650054  0.2143273940169763  0.3750000000000000
  0.4963735084650054  0.2143273940169763  0.8750000000000000
  0.4963735084650054  0.7143274240169788  0.3750000000000000
  0.4963735084650054  0.7143274240169788  0.8750000000000000
  0.9963735084650054  0.2143273940169763  0.3750000000000000
  0.9963735084650054  0.2143273940169763  0.8750000000000000
  0.9963735084650054  0.7143274240169788  0.3750000000000000
  0.9963735084650054  0.7143274240169788  0.8750000000000000
  0.4028655958099847  0.4046293316238447  0.4819623344824180
  0.4028655958099847  0.4046293316238447  0.9819623054824334
  0.4028655958099847  0.9046293316238376  0.4819623344824180
  0.4028655958099847  0.9046293316238376  0.9819623054824334
  0.9028655958099918  0.4046293316238447  0.4819623344824180
  0.9028655958099918  0.4046293316238447  0.9819623054824334
  0.9028655958099918  0.9046293316238376  0.4819623344824180
  0.9028655958099918  0.9046293316238376  0.9819623054824334
  0.1528655958099847  0.3453706683761553  0.2680376655175820
  0.1528655958099847  0.3453706683761553  0.7680376945175666
  0.1528655958099847  0.8453706683761624  0.2680376655175820
  0.1528655958099847  0.8453706683761624  0.7680376945175666
  0.6528655958099918  0.3453706683761553  0.2680376655175820
  0.6528655958099918  0.3453706683761553  0.7680376945175666
  0.6528655958099918  0.8453706683761624  0.2680376655175820
  0.6528655958099918  0.8453706683761624  0.7680376945175666
  0.0971343961900146  0.0953706833761530  0.2319623344824180
  0.0971343961900146  0.0953706833761530  0.7319623054824334
  0.0971343961900146  0.5953706683761624  0.2319623344824180
  0.0971343961900146  0.5953706683761624  0.7319623054824334
  0.5971344041900082  0.0953706833761530  0.2319623344824180
  0.5971344041900082  0.0953706833761530  0.7319623054824334
  0.5971344041900082  0.5953706683761624  0.2319623344824180
  0.5971344041900082  0.5953706683761624  0.7319623054824334
  0.3471344041900153  0.1546293166238470  0.0180376655175749
  0.3471344041900153  0.1546293166238470  0.5180376945175666
  0.3471344041900153  0.6546293316238376  0.0180376655175749
  0.3471344041900153  0.6546293316238376  0.5180376945175666
  0.8471344041900082  0.1546293166238470  0.0180376655175749
  0.8471344041900082  0.1546293166238470  0.5180376945175666
  0.8471344041900082  0.6546293316238376  0.0180376655175749
  0.8471344041900082  0.6546293316238376  0.5180376945175666
  0.0971343961900146  0.0953706833761530  0.0180376655175749
  0.0971343961900146  0.0953706833761530  0.5180376945175666
  0.0971343961900146  0.5953706683761624  0.0180376655175749
  0.0971343961900146  0.5953706683761624  0.5180376945175666
  0.5971344041900082  0.0953706833761530  0.0180376655175749
  0.5971344041900082  0.0953706833761530  0.5180376945175666
  0.5971344041900082  0.5953706683761624  0.0180376655175749
  0.5971344041900082  0.5953706683761624  0.5180376945175666
  0.3471344041900153  0.1546293166238470  0.2319623344824180
  0.3471344041900153  0.1546293166238470  0.7319623054824334
  0.3471344041900153  0.6546293316238376  0.2319623344824180
  0.3471344041900153  0.6546293316238376  0.7319623054824334
  0.8471344041900082  0.1546293166238470  0.2319623344824180
  0.8471344041900082  0.1546293166238470  0.7319623054824334
  0.8471344041900082  0.6546293316238376  0.2319623344824180
  0.8471344041900082  0.6546293316238376  0.7319623054824334
  0.4028655958099847  0.4046293316238447  0.2680376655175820
  0.4028655958099847  0.4046293316238447  0.7680376945175666
  0.4028655958099847  0.9046293316238376  0.2680376655175820
  0.4028655958099847  0.9046293316238376  0.7680376945175666
  0.9028655958099918  0.4046293316238447  0.2680376655175820
  0.9028655958099918  0.4046293316238447  0.7680376945175666
  0.9028655958099918  0.9046293316238376  0.2680376655175820
  0.9028655958099918  0.9046293316238376  0.7680376945175666
  0.1528655958099847  0.3453706683761553  0.4819623344824180
  0.1528655958099847  0.3453706683761553  0.9819623054824334
  0.1528655958099847  0.8453706683761624  0.4819623344824180
  0.1528655958099847  0.8453706683761624  0.9819623054824334
  0.6528655958099918  0.3453706683761553  0.4819623344824180
  0.6528655958099918  0.3453706683761553  0.9819623054824334
  0.6528655958099918  0.8453706683761624  0.4819623344824180
  0.6528655958099918  0.8453706683761624  0.9819623054824334

  0.00000000E+00  0.00000000E+00  0.00000000E+00
  0.00000000E+00  0.00000000E+00  0.00000000E+00
  0.00000000E+00  0.00000000E+00  0.00000000E+00
  0.00000000E+00  0.00000000E+00  0.00000000E+00
  0.00000000E+00  0.00000000E+00  0.00000000E+00
  0.00000000E+00  0.00000000E+00  0.00000000E+00
  0.00000000E+00  0.00000000E+00  0.00000000E+00
  0.00000000E+00  0.00000000E+00  0.00000000E+00
  0.00000000E+00  0.00000000E+00  0.00000000E+00
  0.00000000E+00  0.00000000E+00  0.00000000E+00
  0.00000000E+00  0.00000000E+00  0.00000000E+00
  0.00000000E+00  0.00000000E+00  0.00000000E+00
  0.00000000E+00  0.00000000E+00  0.00000000E+00
  0.00000000E+00  0.00000000E+00  0.00000000E+00
  0.00000000E+00  0.00000000E+00  0.00000000E+00
  0.00000000E+00  0.00000000E+00  0.00000000E+00
  0.00000000E+00  0.00000000E+00  0.00000000E+00
  0.00000000E+00  0.00000000E+00  0.00000000E+00
  0.00000000E+00  0.00000000E+00  0.00000000E+00
  0.00000000E+00  0.00000000E+00  0.00000000E+00
  0.00000000E+00  0.00000000E+00  0.00000000E+00
  0.00000000E+00  0.00000000E+00  0.00000000E+00
  0.00000000E+00  0.00000000E+00  0.00000000E+00
  0.00000000E+00  0.00000000E+00  0.00000000E+00
  0.00000000E+00  0.00000000E+00  0.00000000E+00
  0.00000000E+00  0.00000000E+00  0.00000000E+00
  0.00000000E+00  0.00000000E+00  0.00000000E+00
  0.00000000E+00  0.00000000E+00  0.00000000E+00
  0.00000000E+00  0.00000000E+00  0.00000000E+00
  0.00000000E+00  0.00000000E+00  0.00000000E+00
  0.00000000E+00  0.00000000E+00  0.00000000E+00
  0.00000000E+00  0.00000000E+00  0.00000000E+00
  0.00000000E+00  0.00000000E+00  0.00000000E+00
  0.00000000E+00  0.00000000E+00  0.00000000E+00
  0.00000000E+00  0.00000000E+00  0.00000000E+00
  0.00000000E+00  0.00000000E+00  0.00000000E+00
  0.00000000E+00  0.00000000E+00  0.00000000E+00
  0.00000000E+00  0.00000000E+00  0.00000000E+00
  0.00000000E+00  0.00000000E+00  0.00000000E+00
  0.00000000E+00  0.00000000E+00  0.00000000E+00
  0.00000000E+00  0.00000000E+00  0.00000000E+00
  0.00000000E+00  0.00000000E+00  0.00000000E+00
  0.00000000E+00  0.00000000E+00  0.00000000E+00
  0.00000000E+00  0.00000000E+00  0.00000000E+00
  0.00000000E+00  0.00000000E+00  0.00000000E+00
  0.00000000E+00  0.00000000E+00  0.00000000E+00
  0.00000000E+00  0.00000000E+00  0.00000000E+00
  0.00000000E+00  0.00000000E+00  0.00000000E+00
  0.00000000E+00  0.00000000E+00  0.00000000E+00
  0.00000000E+00  0.00000000E+00  0.00000000E+00
  0.00000000E+00  0.00000000E+00  0.00000000E+00
  0.00000000E+00  0.00000000E+00  0.00000000E+00
  0.00000000E+00  0.00000000E+00  0.00000000E+00
  0.00000000E+00  0.00000000E+00  0.00000000E+00
  0.00000000E+00  0.00000000E+00  0.00000000E+00
  0.00000000E+00  0.00000000E+00  0.00000000E+00
  0.00000000E+00  0.00000000E+00  0.00000000E+00
  0.00000000E+00  0.00000000E+00  0.00000000E+00
  0.00000000E+00  0.00000000E+00  0.00000000E+00
  0.00000000E+00  0.00000000E+00  0.00000000E+00
  0.00000000E+00  0.00000000E+00  0.00000000E+00
  0.00000000E+00  0.00000000E+00  0.00000000E+00
  0.00000000E+00  0.00000000E+00  0.00000000E+00
  0.00000000E+00  0.00000000E+00  0.00000000E+00
  0.00000000E+00  0.00000000E+00  0.00000000E+00
  0.00000000E+00  0.00000000E+00  0.00000000E+00
  0.00000000E+00  0.00000000E+00  0.00000000E+00
  0.00000000E+00  0.00000000E+00  0.00000000E+00
  0.00000000E+00  0.00000000E+00  0.00000000E+00
  0.00000000E+00  0.00000000E+00  0.00000000E+00
  0.00000000E+00  0.00000000E+00  0.00000000E+00
  0.00000000E+00  0.00000000E+00  0.00000000E+00
  0.00000000E+00  0.00000000E+00  0.00000000E+00
  0.00000000E+00  0.00000000E+00  0.00000000E+00
  0.00000000E+00  0.00000000E+00  0.00000000E+00
  0.00000000E+00  0.00000000E+00  0.00000000E+00
  0.00000000E+00  0.00000000E+00  0.00000000E+00
  0.00000000E+00  0.00000000E+00  0.00000000E+00
  0.00000000E+00  0.00000000E+00  0.00000000E+00
  0.00000000E+00  0.00000000E+00  0.00000000E+00
  0.00000000E+00  0.00000000E+00  0.00000000E+00
  0.00000000E+00  0.00000000E+00  0.00000000E+00
  0.00000000E+00  0.00000000E+00  0.00000000E+00
  0.00000000E+00  0.00000000E+00  0.00000000E+00
  0.00000000E+00  0.00000000E+00  0.00000000E+00
  0.00000000E+00  0.00000000E+00  0.00000000E+00
  0.00000000E+00  0.00000000E+00  0.00000000E+00
  0.00000000E+00  0.00000000E+00  0.00000000E+00
  0.00000000E+00  0.00000000E+00  0.00000000E+00
  0.00000000E+00  0.00000000E+00  0.00000000E+00
  0.00000000E+00  0.00000000E+00  0.00000000E+00
  0.00000000E+00  0.00000000E+00  0.00000000E+00
  0.00000000E+00  0.00000000E+00  0.00000000E+00
  0.00000000E+00  0.00000000E+00  0.00000000E+00
  0.00000000E+00  0.00000000E+00  0.00000000E+00
  0.00000000E+00  0.00000000E+00  0.00000000E+00
  0.00000000E+00  0.00000000E+00  0.00000000E+00
  0.00000000E+00  0.00000000E+00  0.00000000E+00
  0.00000000E+00  0.00000000E+00  0.00000000E+00
  0.00000000E+00  0.00000000E+00  0.00000000E+00
  0.00000000E+00  0.00000000E+00  0.00000000E+00
  0.00000000E+00  0.00000000E+00  0.00000000E+00
  0.00000000E+00  0.00000000E+00  0.00000000E+00
  0.00000000E+00  0.00000000E+00  0.00000000E+00
  0.00000000E+00  0.00000000E+00  0.00000000E+00
  0.00000000E+00  0.00000000E+00  0.00000000E+00
  0.00000000E+00  0.00000000E+00  0.00000000E+00
  0.00000000E+00  0.00000000E+00  0.00000000E+00
  0.00000000E+00  0.00000000E+00  0.00000000E+00
  0.00000000E+00  0.00000000E+00  0.00000000E+00
  0.00000000E+00  0.00000000E+00  0.00000000E+00
  0.00000000E+00  0.00000000E+00  0.00000000E+00
  0.00000000E+00  0.00000000E+00  0.00000000E+00
  0.00000000E+00  0.00000000E+00  0.00000000E+00
  0.00000000E+00  0.00000000E+00  0.00000000E+00
  0.00000000E+00  0.00000000E+00  0.00000000E+00
  0.00000000E+00  0.00000000E+00  0.00000000E+00
  0.00000000E+00  0.00000000E+00  0.00000000E+00
  0.00000000E+00  0.00000000E+00  0.00000000E+00
  0.00000000E+00  0.00000000E+00  0.00000000E+00
  0.00000000E+00  0.00000000E+00  0.00000000E+00
  0.00000000E+00  0.00000000E+00  0.00000000E+00
  0.00000000E+00  0.00000000E+00  0.00000000E+00
  0.00000000E+00  0.00000000E+00  0.00000000E+00
  0.00000000E+00  0.00000000E+00  0.00000000E+00
  0.00000000E+00  0.00000000E+00  0.00000000E+00
  0.00000000E+00  0.00000000E+00  0.00000000E+00
  0.00000000E+00  0.00000000E+00  0.00000000E+00
  0.00000000E+00  0.00000000E+00  0.00000000E+00
  0.00000000E+00  0.00000000E+00  0.00000000E+00
  0.00000000E+00  0.00000000E+00  0.00000000E+00
  0.00000000E+00  0.00000000E+00  0.00000000E+00
  0.00000000E+00  0.00000000E+00  0.00000000E+00
  0.00000000E+00  0.00000000E+00  0.00000000E+00
  0.00000000E+00  0.00000000E+00  0.00000000E+00
  0.00000000E+00  0.00000000E+00  0.00000000E+00
  0.00000000E+00  0.00000000E+00  0.00000000E+00
  0.00000000E+00  0.00000000E+00  0.00000000E+00
  0.00000000E+00  0.00000000E+00  0.00000000E+00
  0.00000000E+00  0.00000000E+00  0.00000000E+00
  0.00000000E+00  0.00000000E+00  0.00000000E+00
  0.00000000E+00  0.00000000E+00  0.00000000E+00
  0.00000000E+00  0.00000000E+00  0.00000000E+00
  0.00000000E+00  0.00000000E+00  0.00000000E+00
  0.00000000E+00  0.00000000E+00  0.00000000E+00
  0.00000000E+00  0.00000000E+00  0.00000000E+00
  0.00000000E+00  0.00000000E+00  0.00000000E+00
  0.00000000E+00  0.00000000E+00  0.00000000E+00
  0.00000000E+00  0.00000000E+00  0.00000000E+00
  0.00000000E+00  0.00000000E+00  0.00000000E+00
  0.00000000E+00  0.00000000E+00  0.00000000E+00
  0.00000000E+00  0.00000000E+00  0.00000000E+00
  0.00000000E+00  0.00000000E+00  0.00000000E+00
  0.00000000E+00  0.00000000E+00  0.00000000E+00
  0.00000000E+00  0.00000000E+00  0.00000000E+00
  0.00000000E+00  0.00000000E+00  0.00000000E+00
  0.00000000E+00  0.00000000E+00  0.00000000E+00
  0.00000000E+00  0.00000000E+00  0.00000000E+00
  0.00000000E+00  0.00000000E+00  0.00000000E+00
  0.00000000E+00  0.00000000E+00  0.00000000E+00
